%nprocshared=14
%mem=8GB
# nmr=giao b3lyp/def2TZVP pop=nbo scfcyc=200

Ligand 11 SPE NoRh 

0  1
P           0.14700         1.67900         0.16800
P          -1.01000        -0.90800         0.64700
O          -2.72300         1.18600         0.39100
C          -1.50700        -1.97200         2.15700
C          -0.48500        -1.73200         3.27700
C          -2.91700        -1.60300         2.63500
C          -1.47200        -3.44500         1.71700
C          -1.44100         0.89800         0.94400
C          -0.32800         2.66700        -1.42200
C          -3.17800         0.18000        -0.42700
C          -2.42300        -0.99300        -0.51100
C          -1.44500         3.69800        -1.19900
C          -0.77500         1.63300        -2.47200
C           0.77300         2.80600         1.61100
C           2.01900         3.60600         1.19300
C          -0.30200         3.78000         2.12000
C           1.17400         1.85600         2.75600
C          -4.00700        -1.86200        -2.10100
C          -4.35600         0.33900        -1.14400
C          -4.76100        -0.69500        -1.98000
C           0.92000         3.38400        -1.96900
H          -4.33300        -2.65100        -2.76500
H          -4.93000         1.25200        -1.05200
H          -5.67500        -0.58500        -2.55100
H           0.53900        -1.92000         2.95200
H           1.77800         4.42900         0.52500
H           2.78100         2.99000         0.71600
H          -1.47000         1.17100         1.99600
H          -0.53600        -0.71400         3.66600
H          -3.67100        -1.78200         1.86900
H          -2.20600        -3.65600         0.93800
H          -2.33700         3.25900        -0.75700
H          -1.70600         1.13700        -2.20800
H          -1.23300         3.28500         2.39800
H           0.68900         3.75000        -2.97300
H           1.78500         2.72700        -2.05700
H          -0.70200        -2.40500         4.11000
H          -2.98900        -0.56000         2.95100
H          -1.11900         4.52800        -0.57500
H           0.07600         4.28000         3.01600
H           1.20400         4.24600        -1.37200
H          -3.17100        -2.22100         3.50000
H          -1.72300         4.12000        -2.17000
H          -0.53700         4.55500         1.39300
H           1.61100         2.44600         3.56500
H           0.32200         1.32300         3.17900
H           1.91000         1.11600         2.43900
H          -0.48700        -3.75100         1.35900
H          -1.71800        -4.07800         2.57300
H          -0.94300         2.15500        -3.41800
H          -0.01500         0.86800        -2.64100
H           2.46800         4.04100         2.08900
C          -2.83600        -2.01300        -1.36700
H          -2.25600        -2.92100        -1.46200

