%nprocshared=14
%mem=8GB
# nmr=giao b3lyp/def2TZVP pop=nbo scfcyc=200

Ligand 17 SPE NoRh 

0  1
C           1.36800         0.17800        -2.09900
C           1.09600         1.28500        -2.94000
H           0.40900         1.15700        -3.76800
C           1.72400         2.48300        -2.75500
H           1.53700         3.31100        -3.42800
C           2.64000         2.65700        -1.69000
C           3.31100         3.89000        -1.49500
H           3.11700         4.70000        -2.18800
C           4.19100         4.05600        -0.45900
H           4.70800         4.99900        -0.32500
C           4.42000         2.99500         0.44100
H           5.10100         3.13400         1.27000
C           3.78700         1.78900         0.27800
H           3.97400         0.99400         0.98400
C           2.89500         1.56400        -0.80300
C           2.25600         0.29700        -1.04300
C           2.60800        -0.88700        -0.19500
C           3.97200        -1.35100        -0.20400
C           4.93500        -0.86500        -1.12900
H           4.64400        -0.11800        -1.85300
C           6.22400        -1.33500        -1.12900
H           6.93300        -0.95400        -1.85300
C           6.63500        -2.31100        -0.19800
H           7.65900        -2.66400        -0.20300
C           5.73200        -2.81900         0.69800
H           6.02900        -3.58300         1.40700
C           4.38800        -2.37200         0.70600
C           3.43200        -2.93200         1.58300
H           3.74300        -3.68800         2.29400
C           2.12200        -2.55800         1.50100
H           1.39500        -3.03700         2.14700
C           1.67500        -1.55800         0.59400
C           0.17500        -1.40100         0.49900
H          -0.25200        -2.24600         1.03700
C           0.69900        -1.13300        -2.40000
H           0.26500        -1.12200        -3.39900
H           1.41100        -1.95800        -2.34900
C          -1.12500        -3.32300        -1.51600
C          -2.33300        -3.69300        -0.64000
H          -2.62000        -4.72900        -0.84000
H          -2.10900        -3.62200         0.42500
H          -3.19600        -3.05900        -0.84100
C           0.04900        -4.26000        -1.19300
H           0.93500        -4.04500        -1.79200
H           0.33600        -4.22500        -0.14200
H          -0.24900        -5.28800        -1.41500
C          -1.49600        -3.47100        -3.00300
H          -1.86000        -4.48600        -3.18000
H          -2.28600        -2.78500        -3.31200
H          -0.63700        -3.31700        -3.65700
C           0.18900         1.44400         1.75600
C           0.20100         2.66000         1.07100
C           0.90500         1.32100         2.95200
C           0.89000         3.75100         1.59200
H          -0.32200         2.75500         0.12900
C           1.59900         2.40900         3.46400
H           0.90300         0.38700         3.49900
C           1.58100         3.62800         2.79100
H           0.89000         4.69200         1.05800
H           2.14600         2.30800         4.39300
H           2.11200         4.47900         3.20000
C          -1.69100        -0.50500         2.71900
C          -2.30500         0.48300         3.50200
C          -1.82300        -1.83900         3.10600
C          -3.01900         0.14100         4.64300
H          -2.20900         1.52800         3.23700
C          -2.53500        -2.18000         4.25300
H          -1.37200        -2.63800         2.53300
C          -3.13700        -1.19300         5.02300
H          -3.47900         0.91900         5.23900
H          -2.61600        -3.22000         4.54200
H          -3.69000        -1.45900         5.91500
P          -0.67500        -1.49200        -1.19500
P          -0.86000         0.05800         1.15700

