%nprocshared=14
%mem=8GB
# nmr=giao b3lyp/def2TZVP pop=nbo scfcyc=200

Ligand 18 SPE NoRh 

0  1
P          -0.15600         1.53200         0.38700
P          -0.70700        -1.22400         0.63000
C          -0.95100        -2.60600         1.95500
C          -0.16100        -2.31600         3.23500
C          -2.44700        -2.72000         2.27300
C          -0.44600        -3.91200         1.32000
C          -1.68700         0.42500         0.67200
C          -0.52600         2.94900        -0.89000
C          -1.21600        -1.80000        -0.95900
C          -1.81200         3.74700        -0.60900
C          -0.62800         2.32300        -2.29600
C           0.21600         2.28400         2.13900
C           1.65700         2.82100         2.19700
C          -0.77000         3.39200         2.53700
C           0.12200         1.15400         3.17400
C           0.66700         3.92400        -0.89700
H           0.90000        -2.16200         3.03800
H           1.86300         3.60200         1.46900
H           2.38300         2.01900         2.06200
H          -2.19300         0.69100         1.59800
H          -0.54500        -1.45200         3.77500
H          -3.02900        -3.00500         1.39600
H          -0.97500        -4.15500         0.40100
H          -2.69200         3.11700        -0.48500
H          -1.56500         1.79500        -2.45200
H          -1.81300         3.09200         2.42000
H           0.52800         4.63200        -1.71800
H           1.62200         3.42200        -1.06000
H          -0.25300        -3.18000         3.89900
H          -2.85800        -1.79400         2.68100
H          -1.72900         4.38100         0.26900
H          -0.61800         3.63100         3.59300
H           0.73300         4.50800         0.01900
H          -2.58600        -3.49800         3.02900
H          -2.00300         4.40200        -1.46400
H          -0.61100         4.31200         1.97700
H           0.44200         1.54500         4.14400
H          -0.89300         0.78000         3.30200
H           0.78000         0.32200         2.92400
H           0.62100        -3.87900         1.10000
H          -0.60400        -4.72000         2.04000
H          -0.58800         3.12600        -3.03600
H           0.18700         1.63200        -2.50700
H           1.82600         3.25000         3.18800
C          -2.19600        -0.82700        -1.50900
H          -1.71100        -0.34000        -2.36500
C          -2.70600         0.26400        -0.48500
H          -2.80600         1.21100        -1.01100
C          -4.56800        -0.72000        -2.40400
H          -5.34100        -1.26900        -2.94500
H          -4.24500         0.08500        -3.07100
C          -5.14600        -0.13200        -1.09700
H          -6.00200        -0.72400        -0.76700
H          -5.52600         0.87500        -1.28400
C          -4.10700        -0.09400         0.03800
H          -4.07100        -1.06400         0.54000
H          -4.41600         0.62900         0.79800
C          -3.37900        -1.64100        -2.12900
H          -3.02300        -2.12600        -3.03700
H          -3.68000        -2.44200        -1.44900

