%nprocshared=14
%mem=8GB
# nmr=giao b3lyp/def2TZVP pop=nbo scfcyc=200

Ligand 19 SPE NoRh 

0  1
C           0.11100         2.15400        -2.46800
H          -0.06500         1.25000        -3.04600
H           1.11400         2.51400        -2.69600
H          -0.61300         2.91500        -2.76000
C           0.21500         3.41900         0.19600
C          -0.91300         4.38200        -0.20900
H          -1.89700         4.00600         0.07900
H          -0.92000         4.59700        -1.27800
H          -0.77300         5.33400         0.30900
C           1.57600         4.00400        -0.22300
H           1.75600         4.92300         0.33900
H           1.61100         4.26200        -1.28200
H           2.40600         3.32800        -0.00700
C           0.18500         3.21200         1.71600
H           0.94800         2.50700         2.05200
H          -0.78700         2.85400         2.05400
H           0.37300         4.16700         2.21300
C          -2.54900        -1.35500        -1.35000
C          -1.94900        -0.91200        -2.69600
H          -0.87500        -1.10200        -2.74700
H          -2.12600         0.14500        -2.89500
H          -2.42600        -1.48100        -3.49700
C          -2.40100        -2.88300        -1.24100
H          -2.94500        -3.34300        -2.07000
H          -2.80900        -3.29100        -0.32100
H          -1.36200        -3.20000        -1.32700
C          -4.03700        -0.97200        -1.32000
H          -4.52500        -1.38800        -2.20500
H          -4.19300         0.10800        -1.35000
H          -4.55400        -1.37200        -0.44900
C          -2.37400        -0.63200         1.74600
C          -1.31900        -0.22900         2.79200
H          -1.77400        -0.26700         3.78500
H          -0.95100         0.78300         2.63600
H          -0.46400        -0.90500         2.79000
C          -3.58000         0.31100         1.87600
H          -4.38500         0.07300         1.18200
H          -3.29600         1.35400         1.73500
H          -3.98700         0.22200         2.88700
C          -2.80400        -2.08100         2.02600
H          -3.11100        -2.15500         3.07200
H          -1.99100        -2.79500         1.87900
H          -3.65300        -2.39200         1.42000
N          -1.62100         1.21900        -0.36700
H          -2.46600         1.73200        -0.58600
P          -0.00700         1.74200        -0.67000
P          -1.53200        -0.47200         0.02200

