%nprocshared=14
%mem=8GB
# nmr=giao b3lyp/def2TZVP pop=nbo scfcyc=200

Ligand 23 SPE NoRh 

0  1
N          -0.48600        -0.78000         1.69800
O          -2.75200        -0.31500         2.63500
P          -2.11100        -1.37800         1.53200
P          -0.11600        -0.36100         0.05100
C          -0.31500        -0.12200         3.03100
H           0.03900        -0.88600         3.72300
C          -1.75100         0.37900         3.41800
H          -1.95200         0.14600         4.46400
C          -1.75100         1.90100         3.18700
H          -2.19400         2.13500         2.21500
H          -2.34200         2.42700         3.93800
C          -0.28500         2.25900         3.23400
C           0.52100         1.12300         3.11800
C           1.90700         1.21600         3.19600
H           2.53000         0.33000         3.15000
C           2.48600         2.47100         3.35800
H           3.56300         2.56300         3.42800
C           1.68500         3.60800         3.45600
H           2.14900         4.57700         3.59400
C           0.29700         3.50900         3.40100
H          -0.31700         4.39600         3.50700
C          -2.32000        -3.06400         2.35300
C          -1.66100        -3.13200         3.73700
H          -2.05700        -2.38000         4.42000
H          -0.57700        -3.03300         3.68100
H          -1.87200        -4.11000         4.17700
C          -3.84000        -3.28100         2.49200
H          -4.01800        -4.26900         2.92300
H          -4.35600        -3.24900         1.53100
H          -4.29500        -2.54100         3.15100
C          -1.70400        -4.11900         1.42100
H          -1.88900        -5.11300         1.83500
H          -0.62400        -3.99900         1.32700
H          -2.13800        -4.08800         0.42000
C           1.51100        -1.14700        -0.30500
C           2.09400        -0.99000        -1.56500
C           2.11900        -1.98100         0.62800
C           3.27600        -1.65100        -1.87400
H           1.63700        -0.35300        -2.31300
C           3.30800        -2.63300         0.31300
H           1.66300        -2.12700         1.59800
C           3.89400        -2.47300        -0.93500
H           4.81300        -2.98700        -1.17900
C           0.18100         1.44700        -0.19800
C           1.45300         2.02600        -0.18900
C          -0.92800         2.24200        -0.47700
C           1.59900         3.37900        -0.45700
H           2.33000         1.43300         0.02500
C          -0.77400         3.60200        -0.73300
H          -1.91400         1.79300        -0.51100
C           0.48800         4.17600        -0.72900
H           0.61000         5.23000        -0.94100
C          -2.00900         4.42800        -1.00400
C           2.97000         4.02000        -0.47900
C           3.93800        -3.51800         1.36500
C           3.90700        -1.43100        -3.23200
F           2.96600        -1.37900        -4.20100
F           4.57900        -0.26200        -3.27200
F           4.76900        -2.40800        -3.55000
F           5.06300        -4.10300         0.93500
F           3.08500        -4.49500         1.74900
F           4.24000        -2.80800         2.47600
F           3.93200         3.16800        -0.08000
F           3.01800         5.09800         0.33000
F           3.28800         4.44000        -1.72000
F          -2.76900         4.54400         0.10900
F          -2.78800         3.84400        -1.94500
F          -1.71600         5.66500        -1.42600

