%nprocshared=14
%mem=8GB
# nmr=giao b3lyp/def2TZVP pop=nbo scfcyc=200

Ligand 27 SPE NoRh 

0  1
C          -0.38000         0.07300        -1.07300
H           0.18000        -0.24600        -1.95200
H          -1.31400         0.54600        -1.37800
P           0.55400         1.15500         0.11900
P          -0.73100        -1.23600         0.22500
O           0.09900         2.70500        -0.05000
O           2.06700         0.99500        -0.47600
O           0.18100        -2.52300        -0.12100
O          -2.24200        -1.78900        -0.06100
C           0.15900         3.48000        -1.31400
C          -1.27900         3.71800        -1.81200
C           0.90100         4.77900        -1.01700
H           0.72700         2.88500        -2.02800
C          -2.01200         4.66200        -0.82900
H          -1.79800         2.75300        -1.75800
C           0.15500         5.66600        -0.01500
H           1.90200         4.54900        -0.65200
H           1.03600         5.30500        -1.96600
C          -1.28800         5.97300        -0.45300
H          -2.15600         4.09700         0.09600
H          -3.01400         4.88200        -1.20000
H           0.71000         6.59500         0.13300
H           0.13500         5.15800         0.95300
H          -1.81400         6.36600         0.42400
C           3.28000         1.00300         0.37400
C           4.25300        -0.02600        -0.23500
C           3.81600         2.42700         0.46100
H           2.96800         0.65200         1.36100
C           5.06900         0.55300        -1.42500
H           3.59700        -0.78000        -0.67800
C           4.37000         2.92200        -0.87700
H           3.02600         3.08900         0.82400
H           4.60200         2.44700         1.22000
C           5.51700         2.03400        -1.38600
H           4.43100         0.45200        -2.30800
H           5.93400        -0.08300        -1.62000
H           4.71300         3.95500        -0.77500
H           3.56500         2.93100        -1.61600
H           5.69800         2.30800        -2.43000
C           0.07800        -3.29800        -1.38400
C           1.50200        -3.44100        -1.94800
C          -0.58300        -4.63600        -1.07000
H          -0.55200        -2.72600        -2.06300
C           2.32800        -4.36500        -1.02000
H           1.96200        -2.44700        -1.88700
C           0.25800        -5.49800        -0.12500
H          -1.57200        -4.45400        -0.64700
H          -0.74400        -5.15400        -2.02000
C           1.69100        -5.72000        -0.64100
H           2.48500        -3.81200        -0.09000
H           3.32100        -4.52600        -1.44100
H          -0.23800        -6.45800         0.03400
H           0.30200        -5.00500         0.85100
H           2.28000        -6.10400         0.19900
C          -3.46900        -1.19900         0.50300
C          -4.31100        -0.61600        -0.64900
C          -4.20200        -2.29900         1.26400
H          -3.15900        -0.40900         1.18800
C          -4.81400        -1.77300        -1.54600
H          -3.62900        -0.01700        -1.26600
C          -4.66700        -3.43700         0.34900
H          -3.55300        -2.69500         2.05000
H          -5.05700        -1.84300         1.77200
C          -5.52400        -2.94400        -0.83100
H          -3.93400        -2.18600        -2.04700
H          -5.44900        -1.38200        -2.34100
H          -5.22100        -4.17400         0.93500
H          -3.78500        -3.95100        -0.04000
H          -5.56200        -3.76000        -1.56000
C           6.83100         2.31400        -0.64700
H           7.61900         1.63100        -0.97300
H           7.17000         3.33000        -0.86100
H           6.74300         2.22400         0.43500
C           5.01100        -0.84200         0.85900
H           4.20900        -1.25300         1.48700
C           5.74100        -2.04400         0.24500
H           6.09800        -2.71300         1.03100
H           5.08600        -2.62100        -0.41200
H           6.61300        -1.73700        -0.33500
C           5.95800        -0.08500         1.79500
H           5.47700         0.75800         2.29500
H           6.31600        -0.75900         2.57700
H           6.83500         0.28800         1.26800
C           1.49400        -3.79800        -3.46500
H           0.90700        -4.70700        -3.61800
C           0.84800        -2.68400        -4.30700
H          -0.20400        -2.51800        -4.06800
H           1.38100        -1.73800        -4.17300
H           0.89500        -2.93600        -5.36700
C           2.90800        -4.06200        -4.00000
H           3.37000        -4.94000        -3.55100
H           2.87700        -4.22700        -5.07800
H           3.56300        -3.20500        -3.81700
C           1.76100        -6.79500        -1.73400
H           2.78600        -6.93600        -2.08200
H           1.41400        -7.75400        -1.34100
H           1.14700        -6.56200        -2.60500
C          -5.39100         0.38600        -0.14500
H          -6.05400        -0.12400         0.55900
C          -4.76700         1.58100         0.59500
H          -5.54000         2.30000         0.87200
H          -4.25400         1.29600         1.51500
H          -4.04700         2.10400        -0.04300
C          -6.25800         0.91400        -1.29600
H          -5.64100         1.38600        -2.06800
H          -6.84700         0.13200        -1.77100
H          -6.95600         1.66800        -0.92800
C          -6.97900        -2.67100        -0.42500
H          -7.07100        -1.93800         0.37700
H          -7.56200        -2.30800        -1.27400
H          -7.45000        -3.59300        -0.07600
C          -1.31600         4.11000        -3.32000
H          -0.69200         4.99400        -3.47600
C          -0.76100         2.99000        -4.21500
H           0.29000         2.76400        -4.02400
H          -1.33400         2.06700        -4.08400
H          -0.83700         3.27300        -5.26600
C          -2.73500         4.45800        -3.78700
H          -3.13400         5.34600        -3.29800
H          -2.74200         4.64900        -4.86200
H          -3.42500         3.63000        -3.59700
C          -1.35600         7.07700        -1.51700
H          -2.38800         7.27800        -1.81100
H          -0.94200         8.00700        -1.12100
H          -0.79700         6.83500        -2.42300

