%nprocshared=14
%mem=8GB
# nmr=giao b3lyp/def2TZVP pop=nbo scfcyc=200

Ligand 28 SPE NoRh 

0  1
C           0.20700        -0.25200         1.81900
H           1.17100        -0.29800         2.32600
H          -0.43400         0.45900         2.34100
P          -0.69100        -1.89000         1.58900
P           0.21900         0.17300         0.00600
O           1.71100        -0.12700        -0.54500
O           0.11700         1.79800        -0.10100
C           2.92200         0.62800        -0.13200
C           3.94800        -0.38800         0.40100
C           3.42000         1.40400        -1.34600
H           2.62000         1.32200         0.65000
C           4.44600        -1.27500        -0.76700
H           3.40700        -1.05200         1.08600
C           3.87100         0.48300        -2.48400
H           2.63300         2.07800        -1.68600
H           4.24800         2.03800        -1.01600
C           4.92900        -0.54100        -2.03700
H           3.60200        -1.90500        -1.06200
H           5.21800        -1.95900        -0.41300
H           4.25600         1.08600        -3.31100
H           2.99700        -0.05100        -2.86800
H           4.98900        -1.30500        -2.82000
C          -1.13400         2.56000        -0.27000
C          -1.35400         3.42700         0.98500
C          -0.99800         3.39000        -1.54300
H          -1.93900         1.83300        -0.37900
C          -0.25100         4.51200         1.05300
H          -1.20000         2.77200         1.85100
C           0.12000         4.43400        -1.44400
H          -0.81800         2.72700        -2.39300
H          -1.96000         3.87600        -1.73100
C          -0.03100         5.35600        -0.22100
H           0.68800         3.99100         1.26200
H          -0.42200         5.16500         1.90900
H           0.14900         5.02600        -2.36200
H           1.07800         3.91100        -1.38100
H           0.93100         5.86200        -0.08200
C           5.04000         0.29600         1.27800
H           5.51000         1.09900         0.70400
C           4.43700         0.92600         2.54500
H           3.71400         1.71500         2.33400
H           3.94200         0.16600         3.15800
H           5.22300         1.37300         3.15600
C           6.14500        -0.68500         1.69300
H           6.72200        -1.05000         0.84600
H           6.84300        -0.19800         2.37600
H           5.72600        -1.55100         2.21400
C           6.33200         0.07200        -1.93500
H           7.06600        -0.67400        -1.62300
H           6.64800         0.45200        -2.91000
H           6.38800         0.90300        -1.23100
C          -2.82400         3.92600         1.10600
H          -3.08900         4.48600         0.20500
C          -3.81800         2.76000         1.23100
H          -4.83300         3.14000         1.35500
H          -3.82800         2.10600         0.35800
H          -3.59000         2.14700         2.10900
C          -3.01300         4.86500         2.30500
H          -2.69800         4.38200         3.23500
H          -2.45400         5.79400         2.20400
H          -4.06600         5.13100         2.41400
C          -1.06400         6.46800        -0.44900
H          -2.05800         6.08900        -0.68800
H          -1.15700         7.10600         0.43200
H          -0.75200         7.10500        -1.28000
C          -1.82000        -2.10600         3.08000
H          -1.16500        -2.03000         3.95200
C           0.71600        -3.14000         1.72500
H           1.49300        -2.65500         1.12600
C           1.24300        -3.30600         3.15500
H           2.16400        -3.89300         3.13600
H           1.47500        -2.35200         3.63200
H           0.53400        -3.83800         3.79100
C           0.40700        -4.48600         1.06000
H           1.29700        -5.11800         1.09100
H          -0.39200        -5.02800         1.56700
H           0.12800        -4.35900         0.01400
C          -2.86000        -0.98200         3.15200
H          -2.40700         0.00600         3.23600
H          -3.51300        -0.98100         2.27700
H          -3.48700        -1.12500         4.03500
C          -2.49400        -3.48300         3.08600
H          -1.77700        -4.30100         3.14600
H          -3.15100        -3.56200         3.95500
H          -3.11100        -3.63700         2.19800

