%nprocshared=14
%mem=8GB
# nmr=giao b3lyp/def2TZVP pop=nbo scfcyc=200

Ligand 29 SPE NoRh 

0  1
P          -1.15400         0.12500        -0.36900
C          -2.53000        -1.09900        -0.91900
H          -2.72400        -0.86000        -1.96800
C          -2.19100        -2.61400        -0.82300
H          -1.95300        -2.82500         0.22400
C          -3.44000        -3.44800        -1.18000
H          -3.69900        -3.28600        -2.23100
H          -3.19900        -4.50800        -1.08200
C          -4.65600        -3.11800        -0.32100
H          -5.50300        -3.74100        -0.61800
H          -4.45000        -3.35500         0.73000
C          -5.02000        -1.64100        -0.44500
H          -5.27900        -1.44900        -1.49500
C          -3.80300        -0.76900        -0.10000
H          -3.59100        -0.88400         0.97000
H          -4.09000         0.27100        -0.24600
C          -0.95500        -3.06700        -1.64200
H          -0.14100        -2.40000        -1.35800
C          -1.13200        -2.97000        -3.16400
H          -1.85800        -3.69900        -3.53000
H          -0.18800        -3.18100        -3.67200
H          -1.46800        -1.98400        -3.49100
C          -0.49700        -4.48000        -1.25100
H           0.45500        -4.72000        -1.73000
H          -1.21000        -5.24400        -1.56200
H          -0.35800        -4.57000        -0.17100
C          -6.22400        -1.26000         0.41800
H          -6.01900        -1.43300         1.47800
H          -7.09900        -1.85500         0.14900
H          -6.49000        -0.20700         0.29600
C          -2.02200         1.82800        -0.55700
H          -2.88100         1.76100         0.11200
C          -1.19800         3.07100        -0.11800
H          -0.28600         3.09300        -0.72500
C          -1.98000         4.36000        -0.45400
H          -2.87000         4.41800         0.17900
H          -1.36400         5.22400        -0.19800
C          -2.42000         4.45600        -1.91200
H          -2.96000         5.39300        -2.07500
H          -1.54400         4.48400        -2.57200
C          -3.30000         3.26700        -2.29000
H          -4.18800         3.28800        -1.64600
C          -2.54100         1.96100        -2.00700
H          -1.69900         1.90900        -2.70700
H          -3.19500         1.12400        -2.25200
C          -0.74900         3.05800         1.36800
H          -0.27100         2.08200         1.54300
C          -1.90100         3.19000         2.37400
H          -2.34600         4.18600         2.34900
H          -1.53500         3.03300         3.39000
H          -2.70200         2.46800         2.20000
C           0.31400         4.12700         1.65500
H           0.72600         3.99800         2.65800
H          -0.09900         5.13700         1.60900
H           1.14300         4.07500         0.94700
C          -3.76700         3.32200        -3.74500
H          -2.91700         3.30600        -4.43300
H          -4.33100         4.23700        -3.93900
H          -4.41300         2.47700        -3.99200
C           0.22000         0.20600        -1.65400
H           0.25600         1.18900        -2.11700
H           0.12400        -0.52700        -2.45000
C           3.00800         1.26600        -0.89000
H           3.77800         0.73100        -1.45200
C           2.54300         2.43200        -1.77500
H           1.73600         2.97900        -1.28000
H           2.14600         2.06100        -2.72200
C           3.70000         3.40300        -2.06100
H           4.45400         2.89200        -2.66900
H           3.33100         4.23700        -2.66200
C           4.34800         3.91500        -0.77200
H           5.19500         4.56300        -1.01000
H           3.63000         4.53500        -0.22400
C           4.80300         2.75500         0.11600
H           5.20900         3.13100         1.05800
H           5.61900         2.21700        -0.37900
C           3.65600         1.77800         0.40800
H           4.03600         0.93900         0.99700
H           2.89700         2.27600         1.01800
C           2.57700        -1.63400        -1.20800
H           1.89000        -2.45000        -0.96800
C           2.80400        -1.61500        -2.73100
H           3.45500        -0.77700        -2.99800
H           1.86400        -1.46200        -3.26500
C           3.45400        -2.92100        -3.21400
H           2.75300        -3.75000        -3.06400
H           3.63400        -2.85900        -4.29000
C           4.75800        -3.21900        -2.47000
H           5.50500        -2.46000        -2.72800
H           5.16700        -4.17800        -2.79600
C           4.54100        -3.22300        -0.95600
H           5.48900        -3.37800        -0.43500
H           3.89400        -4.06400        -0.68100
C           3.90200        -1.91300        -0.47200
H           3.74600        -1.95900         0.60700
H           4.60800        -1.09500        -0.65000
P           1.70900        -0.08800        -0.53800

