%nprocshared=14
%mem=8GB
# nmr=giao b3lyp/def2TZVP pop=nbo scfcyc=200

Ligand 32a SPE NoRh 

0  1
P          -0.67000         0.05500         0.28900
P           1.72400        -0.37800         1.78500
C          -1.96100        -1.37200         0.26200
C          -1.27800        -2.62800         0.85900
H          -0.36500        -2.85300         0.29900
H          -0.99300        -2.44600         1.89800
C          -0.04500         0.15200         2.06800
H          -0.07100         1.18600         2.40800
H          -0.59600        -0.44900         2.79100
C          -2.62900        -4.14100        -0.63000
H          -3.29500        -5.00800        -0.66500
H          -1.74400        -4.39800        -1.22100
C          -1.68400         4.68200         0.65600
H          -1.10400         4.73000         1.58300
H          -2.04700         5.69400         0.45900
C           2.84500         0.74900         2.84100
C          -2.36300        -1.70600        -1.19700
H          -1.47200        -1.94700        -1.77900
H          -2.84000        -0.85200        -1.67700
C          -2.23100        -3.83900         0.82200
H          -1.71400        -4.70000         1.25300
C          -0.27500         2.78400        -0.19700
H           0.32600         2.81500         0.71400
H           0.38800         2.45000        -0.99800
C          -2.28900         1.79200        -1.33100
H          -1.69600         1.42300        -2.17300
H          -3.14900         1.12800        -1.23000
C          -3.32800        -2.91000        -1.22500
H          -3.60300        -3.10600        -2.26500
C          -2.86900         3.71800         0.81700
H          -3.50000         4.04200         1.64900
C          -1.45400         1.79000        -0.02900
C          -4.18800        -2.29000         1.04900
H          -5.07800        -2.04800         1.63600
C          -0.79700         4.20200        -0.50300
H           0.06000         4.87100        -0.61600
C          -2.34800         2.29700         1.13000
H          -3.19600         1.63200         1.28800
H          -1.78800         2.32500         2.06800
C          -1.61200         4.17400        -1.80600
H          -0.98100         3.85500        -2.64200
H          -1.97100         5.17800        -2.04700
C          -3.69200         3.69200        -0.48100
H          -4.55600         3.02900        -0.37000
H          -4.08500         4.68900        -0.69500
C           2.36400         0.77600         4.30000
H           1.34200         1.14800         4.39300
H           3.00600         1.44800         4.87500
H           2.41700        -0.20400         4.77500
C           1.88700        -2.04400         2.57600
H           1.24000        -2.75100         2.06400
H           1.61900        -2.01200         3.63300
H           2.91300        -2.39400         2.47900
C          -2.80000         3.21500        -1.63900
H          -3.38200         3.18000        -2.56300
C          -4.58800        -2.58400        -0.40600
H          -5.28600        -3.42500        -0.44200
H          -5.10900        -1.72300        -0.83700
C           4.28200         0.20100         2.78000
H           4.37200        -0.78100         3.24700
H           4.94400         0.87800         3.32500
H           4.65900         0.13100         1.75800
C          -3.48600        -3.51800         1.65000
H          -4.16500        -4.37500         1.65300
H          -3.21400        -3.32700         2.69400
C          -3.23900        -1.07200         1.07800
H          -3.76400        -0.21400         0.65900
H          -2.98700        -0.82500         2.11400
C           2.81500         2.16900         2.25800
H           3.10100         2.18700         1.20600
H           3.51800         2.79900         2.80900
H           1.83200         2.63100         2.35200

