%nprocshared=14
%mem=8GB
# nmr=giao b3lyp/def2TZVP pop=nbo scfcyc=200

Ligand 37c SPE NoRh 

0  1
P           1.17000        -0.40500        -0.19800
P          -1.33200        -0.29500        -0.93200
O           2.16200        -1.68100        -0.52800
O           2.24700         0.83500        -0.11400
O          -2.18200         0.96300        -1.56300
O          -2.05900        -1.51000        -1.74700
N           0.23900        -0.32500        -1.62500
C           3.25400        -1.88400         0.33100
C           3.17300        -2.97200         1.21800
H           2.30200        -3.61400         1.17800
C           4.20200        -3.20200         2.08800
H           4.16500        -4.04700         2.76500
C           5.31800        -2.33200         2.13500
C           6.35200        -2.51800         3.08600
H           6.29000        -3.36400         3.76000
C           7.40300        -1.64200         3.16500
H           8.18500        -1.79100         3.89900
C           7.45700        -0.53300         2.29600
H           8.27600         0.17100         2.37900
C           6.48300        -0.33300         1.35100
H           6.54200         0.52500         0.69800
C           5.39300        -1.23100         1.22200
C           4.35100        -1.05200         0.25000
C           4.40900        -0.00200        -0.80200
C           5.49700         0.08200        -1.73900
C           6.51400        -0.90300        -1.82100
H           6.47800        -1.75800        -1.16200
C           7.53400        -0.79400        -2.73300
H           8.29300        -1.56500        -2.78100
C           7.60200         0.30500        -3.61300
H           8.41800         0.38100        -4.32000
C           6.62400         1.26500        -3.57900
H           6.65400         2.10400        -4.26400
C           5.54600         1.17400        -2.66400
C           4.50200         2.13000        -2.66800
H           4.55400         2.96400        -3.35700
C           3.42700         1.99300        -1.83300
H           2.60800         2.70000        -1.84100
C           3.38600         0.91300        -0.93300
C          -2.28400         2.23000        -0.97400
C          -1.17200         3.02000        -0.73400
H          -0.18000         2.65900        -0.96700
C          -1.34500         4.29900        -0.20300
H          -0.46200         4.89700        -0.03000
C          -2.61000         4.81400         0.08500
C          -3.70900         3.98300        -0.17500
H          -4.71200         4.33700         0.02400
C          -3.55800         2.70600        -0.69700
H          -4.41900         2.08200        -0.90000
C          -3.37400        -1.94100        -1.49000
C          -3.56000        -3.09200        -0.74400
H          -2.70300        -3.61700        -0.34200
C          -4.85200        -3.57500        -0.54400
H          -4.97200        -4.47900         0.03500
C          -5.96800        -2.93100        -1.08400
C          -5.73300        -1.77500        -1.84200
H          -6.56500        -1.25000        -2.29400
C          -4.45400        -1.27800        -2.05400
H          -4.29200        -0.39500        -2.65700
C          -7.45500        -4.71600        -0.02900
H          -7.05800        -4.54600         0.97500
H          -6.90500        -5.54300        -0.48300
H          -8.49200        -5.03800         0.08200
C           0.70400        -0.46100        -3.04600
H           1.75400        -0.16500        -3.01900
C          -0.03900         0.50800        -3.96300
H           0.04600         1.53800        -3.61600
H          -1.09700         0.25600        -4.04100
H           0.39200         0.45100        -4.96400
C           0.62100        -1.90800        -3.53100
H           1.16700        -2.57600        -2.86500
H           1.06600        -1.98000        -4.52600
H          -0.41400        -2.24300        -3.59300
C          -7.40300        -3.44600        -0.89200
C          -8.01700        -3.77300        -2.27100
H          -8.05900        -2.89600        -2.91800
H          -7.43700        -4.54200        -2.78600
H          -9.03700        -4.14400        -2.15000
C          -8.25000        -2.35600        -0.20000
H          -7.84200        -2.10500         0.78100
H          -8.29700        -1.43900        -0.79000
H          -9.27400        -2.71000        -0.05800
C          -2.82900         6.22600         0.64900
C          -3.56200         6.13100         2.00500
H          -3.72900         7.13000         2.41400
H          -4.53500         5.64700         1.91100
H          -2.97200         5.56500         2.73100
C          -3.69000         7.04200        -0.34000
H          -4.66900         6.58800        -0.50000
H          -3.85200         8.05100         0.04600
H          -3.19700         7.12700        -1.31100
C          -1.50700         6.97800         0.86900
H          -0.85800         6.46600         1.58400
H          -0.95400         7.11400        -0.06300
H          -1.71500         7.97100         1.27200

