%nprocshared=14
%mem=8GB
# nmr=giao b3lyp/def2TZVP pop=nbo scfcyc=200

Ligand 3 SPE NoRh 

0  1
C          -0.01100        -1.96700         0.76600
H          -0.30600        -2.95400         0.41000
H           0.46400        -2.07700         1.74200
C          -1.91300        -0.68300         2.65800
H          -2.20600        -1.68000         2.98400
H          -2.75700        -0.00400         2.78600
H          -1.09100        -0.32900         3.27900
C           0.87900        -1.73500        -2.03300
H           1.16200        -2.78800        -2.03800
H           1.48100        -1.19800        -2.76600
H          -0.16600        -1.64400        -2.32600
P          -1.36800        -0.68200         0.89100
P           1.11100        -0.98100        -0.36000
C          -2.80600        -1.36400        -0.10200
C          -3.36700        -2.69000         0.44400
C          -3.92700        -0.32400        -0.28100
H          -2.36700        -1.55400        -1.08900
C          -4.48200        -3.23000        -0.46400
H          -3.77800        -2.52800         1.44500
H          -2.57600        -3.43800         0.54400
C          -5.05200        -0.87000        -1.17300
H          -4.34400        -0.05900         0.69700
H          -3.52400         0.59300        -0.71600
C          -5.60000        -2.20200        -0.65200
H          -4.88000        -4.15400        -0.03800
H          -4.05800        -3.49400        -1.44000
H          -5.85200        -0.13000        -1.24300
H          -4.66600        -1.00800        -2.18900
H          -6.35600        -2.59000        -1.33800
H          -6.10600        -2.03700         0.30600
C           2.87600        -1.36500         0.13800
C           3.17000        -2.86800         0.28700
C           3.89300        -0.70000        -0.80900
H           2.96900        -0.89400         1.12400
C           4.61100        -3.09900         0.77000
H           3.03600        -3.36700        -0.67800
H           2.47000        -3.33400         0.98500
C           5.33100        -0.93400        -0.32500
H           3.78600        -1.12300        -1.81400
H           3.70100         0.37200        -0.89700
C           5.63200        -2.42500        -0.15100
H           4.80300        -4.17200         0.83300
H           4.71600        -2.70300         1.78600
H           6.03000        -0.48400        -1.03300
H           5.47800        -0.41700         0.63000
H           6.64100        -2.56100         0.24600
H           5.61600        -2.91500        -1.13100

