%nprocshared=14
%mem=8GB
# nmr=giao b3lyp/def2TZVP pop=nbo scfcyc=200

Ligand 41 SPE NoRh 

0  1
P           1.27100        -0.16200        -0.13400
P          -1.32100        -0.17000        -0.18600
O           2.10200         0.01000         1.27100
O           2.34600         0.41000        -1.24100
O          -2.43000         0.01700        -1.37800
O          -2.13600         0.40400         1.12900
N          -0.02600         0.96400        -0.24700
C           3.06200         1.00300         1.52100
C           2.78400         1.86400         2.59700
H           1.87500         1.71300         3.16400
C           3.67200         2.85500         2.90900
H           3.47900         3.51700         3.74400
C           4.83800         3.05100         2.12900
C           5.72100         4.12700         2.39400
H           5.50500         4.78100         3.23000
C           6.81600         4.35100         1.60100
H           7.48000         5.18100         1.80700
C           7.06600         3.50800         0.50000
H           7.91600         3.70400        -0.14200
C           6.24200         2.44400         0.22800
H           6.45100         1.81600        -0.62600
C           5.11500         2.16400         1.04100
C           4.22500         1.06200         0.78400
C           4.51900         0.04300        -0.26100
C           5.73900        -0.71900        -0.26800
C           6.66800        -0.68400         0.80200
H           6.46100        -0.06600         1.66300
C           7.81900        -1.43100         0.76600
H           8.50900        -1.39200         1.60000
C           8.11300        -2.25000        -0.34400
H           9.03000        -2.82400        -0.36200
C           7.22700        -2.32700        -1.38700
H           7.43300        -2.96700        -2.23600
C           6.01900        -1.58700        -1.37200
C           5.07400        -1.70900        -2.42000
H           5.30600        -2.34500        -3.26600
C           3.87500        -1.05500        -2.35700
H           3.13000        -1.15000        -3.13600
C           3.60700        -0.21300        -1.26300
C          -3.45100         0.98200        -1.41100
C          -3.47200         1.80100        -2.55400
H          -2.73700         1.63000        -3.32900
C          -4.42700         2.77100        -2.67000
H          -4.46300         3.39900        -3.55200
C          -5.36300         2.99000        -1.63000
C          -6.29700         4.05300        -1.69600
H          -6.30200         4.68500        -2.57600
C          -7.16600         4.29200        -0.66400
H          -7.87100         5.11200        -0.72100
C          -7.12900         3.47600         0.48500
H          -7.79800         3.68400         1.31100
C          -6.25100         2.42500         0.57200
H          -6.23600         1.81800         1.46500
C          -5.35100         2.13300        -0.48500
C          -4.41100         1.04400        -0.42300
C          -4.46500         0.02900         0.66300
C          -5.65200        -0.73600         0.94000
C          -6.79800        -0.70100         0.10700
H          -6.79200        -0.08100        -0.77800
C          -7.91100        -1.45000         0.40000
H          -8.77000        -1.41100        -0.25700
C          -7.94600        -2.27200         1.54400
H          -8.83500        -2.84800         1.76800
C          -6.84700        -2.35000         2.36000
H          -6.85500        -2.99400         3.23200
C          -5.67400        -1.60800         2.07500
C          -4.51700        -1.73400         2.88200
H          -4.55100        -2.37600         3.75400
C          -3.36300        -1.07600         2.55500
H          -2.46000        -1.17700         3.14200
C          -3.35300        -0.22600         1.43500
C          -0.13100         2.42800         0.02400
H           0.33800         2.62700         0.99000
H          -1.19800         2.60900         0.15800
C           0.41100         3.43500        -1.02800
C           1.92600         3.65200        -0.88800
H           2.18900         3.96800         0.12500
H           2.49100         2.75400        -1.12500
H           2.25200         4.43700        -1.57300
C          -0.29800         4.76900        -0.71900
H          -0.12000         5.08800         0.31200
H           0.07600         5.55700        -1.37500
H          -1.37800         4.69300        -0.86800
C           0.07800         3.00000        -2.45900
H          -0.99700         2.88200        -2.59700
H           0.42000         3.75700        -3.16700
H           0.56600         2.05900        -2.71800

