%nprocshared=14
%mem=8GB
# nmr=giao b3lyp/def2TZVP pop=nbo scfcyc=200

Ligand 46 SPE NoRh 

0  1
P          -0.29900        -0.04900         1.06600
P           2.37200         0.44600         0.34300
C          -1.02700        -1.24500         2.26800
C          -1.82700        -0.81300         3.33000
H          -2.09100         0.23300         3.42400
C          -2.29600        -1.72900         4.26400
H          -2.91900        -1.38900         5.08200
C          -1.96900        -3.07700         4.15000
H          -2.33800        -3.78700         4.87900
C          -1.17000        -3.51200         3.09700
H          -0.91500        -4.56000         3.00500
C          -0.70200        -2.59900         2.15700
H          -0.08300        -2.94000         1.33500
C           1.31200         0.46700         1.88300
H           1.32100         1.38700         2.46400
H           1.60100        -0.35300         2.54000
C           4.01500        -0.26300         0.78300
C           4.09200        -1.39500         1.60300
H           3.19800        -1.82700         2.03500
C           5.32100        -1.98500         1.87100
H           5.37000        -2.85300         2.51700
C           6.48500        -1.46400         1.31200
H           7.44100        -1.92500         1.52100
C           6.41300        -0.35200         0.48100
H           7.31400         0.05700         0.04100
C           5.18600         0.24700         0.21500
H           5.14900         1.11800        -0.42700
C           2.67600         2.21200        -0.06800
C           3.34400         3.05100         0.83300
H           3.72400         2.65900         1.76900
C           3.53900         4.39100         0.52500
H           4.05900         5.03300         1.22400
C           3.06900         4.90600        -0.68200
H           3.22500         5.95100        -0.92100
C           2.40300         4.07900        -1.57900
H           2.03500         4.47800        -2.51600
C           2.20500         2.73600        -1.27300
H           1.67500         2.09500        -1.96600
C          -1.41500         1.41700         1.02000
C          -2.77400         1.27900         0.54500
C          -0.92900         2.66100         1.33700
C          -3.36000         0.05900         0.20100
C          -3.57600         2.47400         0.42500
C          -1.72800         3.82700         1.22200
H           0.08900         2.78900         1.67400
C          -4.67900        -0.03700        -0.25400
H          -2.80100        -0.86200         0.30800
C          -4.89200         2.37900        -0.03000
C          -3.01300         3.73400         0.77700
H          -1.30400         4.78600         1.49000
C          -5.27400        -1.28600        -0.59900
C          -5.46900         1.15800        -0.37900
H          -5.48200         3.28500        -0.11300
H          -3.62800         4.62100         0.68300
C          -6.56400        -1.34700        -1.04100
H          -4.68500        -2.19000        -0.50000
C          -6.81300         1.05100        -0.84400
C          -7.34300        -0.16400        -1.16700
H          -7.00600        -2.30200        -1.29800
H          -7.40600         1.95300        -0.93600
H          -8.36400        -0.23700        -1.51900

