%nprocshared=14
%mem=8GB
# nmr=giao b3lyp/def2TZVP pop=nbo scfcyc=200

Ligand 49 SPE NoRh 

0  1
P          -0.55100        -0.68600         0.16300
P           0.58900         1.88800         0.48100
C          -1.75300        -1.36100        -1.07300
C          -1.26700        -2.47600        -1.77200
H          -0.29900        -2.88600        -1.51300
C          -2.00100        -3.08700        -2.77900
H          -1.60300        -3.95300        -3.29300
C          -3.24300        -2.56500        -3.12000
H          -3.83000        -3.01400        -3.91100
C          -3.73900        -1.47100        -2.42100
H          -4.72200        -1.08500        -2.65800
C          -3.02200        -0.86500        -1.37800
C          -3.70000         0.24300        -0.64300
C          -4.05600         1.41700        -1.31700
H          -3.78900         1.53500        -2.36100
C          -4.74900         2.43100        -0.66400
H          -5.01600         3.33200        -1.20200
C          -5.11000         2.28200         0.67200
H          -5.66000         3.06600         1.17800
C          -4.77800         1.11200         1.34700
H          -5.07600         0.97800         2.38000
C          -4.08000         0.10000         0.69600
H          -3.84600        -0.81300         1.22800
C          -0.68900        -1.82600         1.61300
C           0.34000        -1.83500         2.56100
H           1.21000        -1.20600         2.41500
C           0.26400        -2.66200         3.67500
H           1.06600        -2.65900         4.40400
C          -0.83100        -3.50400         3.84600
H          -0.88700        -4.15400         4.70900
C          -1.84600        -3.51800         2.89500
H          -2.69300        -4.18200         3.01400
C          -1.77700        -2.68400         1.78400
H          -2.56500        -2.72200         1.04300
C          -1.04900         1.02600         0.75500
H          -1.37600         1.02000         1.79400
H          -1.84700         1.46100         0.15500
C           0.98000         2.79800         2.08200
H           0.07300         3.36900         2.30400
C           1.23300         1.82800         3.24000
H           0.39800         1.14700         3.40900
H           1.38100         2.39400         4.16300
H           2.13000         1.23000         3.07200
C           2.14700         3.77900         1.91100
H           3.07400         3.26600         1.64700
H           2.32400         4.29900         2.85500
H           1.95300         4.53800         1.15400
C           0.25400         3.23900        -0.78700
H           1.22900         3.72100        -0.90800
C          -0.76100         4.28700        -0.31900
H          -0.88800         5.04200        -1.09800
H          -0.44600         4.80600         0.58700
H          -1.74300         3.84500        -0.13400
C          -0.14200         2.63400        -2.13900
H          -1.12400         2.15800        -2.09500
H           0.58000         1.89000        -2.47900
H          -0.19900         3.42400        -2.89100

