%nprocshared=14
%mem=8GB
# nmr=giao b3lyp/def2TZVP pop=nbo scfcyc=200

Ligand 51b SPE NoRh 

0  1
C          -2.53700         1.00200        -0.39500
H          -2.60800         1.86600         0.27000
C          -3.72600         0.09900        -0.06400
C          -4.73300        -0.16100        -0.99500
H          -4.67200         0.24400        -1.99600
C          -5.84100        -0.93600        -0.65500
H          -6.61200        -1.11800        -1.39300
C          -5.96100        -1.46500         0.62400
H          -6.82400        -2.06200         0.89000
C          -4.96300        -1.21400         1.56200
H          -5.04500        -1.61900         2.56300
C          -3.86200        -0.44100         1.22000
H          -3.09000        -0.27100         1.95900
C          -2.52300         1.53500        -1.83000
H          -1.66700         2.19000        -1.97700
H          -3.42300         2.12000        -2.02400
H          -2.46100         0.72700        -2.55800
C          -0.07700         1.60800         2.43300
C          -1.40900         2.31400         2.73400
H          -1.46100         2.50300         3.81000
H          -2.27000         1.69900         2.47700
H          -1.51600         3.27700         2.23900
C           1.10000         2.49600         2.87800
H           1.08000         3.48100         2.41300
H           2.06900         2.04300         2.66000
H           1.04500         2.63700         3.96000
C          -0.04500         0.28100         3.21400
H           0.90300        -0.24400         3.09100
H          -0.84300        -0.39600         2.90700
H          -0.17900         0.49200         4.27800
C           0.50200         2.66600        -0.40900
C           1.27200         2.49400        -1.56700
H           1.67100         1.51400        -1.79900
C           1.51700         3.56100        -2.42200
H           2.11100         3.41000        -3.31500
C           1.00600         4.82100        -2.12800
H           1.20000         5.65500        -2.79000
C           0.24400         5.00500        -0.97900
H          -0.15700         5.98300        -0.74400
C          -0.00900         3.93700        -0.12500
H          -0.60900         4.11300         0.75400
C          -2.32000        -3.04800        -0.70200
H          -3.30500        -2.62200        -0.51800
H          -2.33000        -4.11500        -0.48800
C          -1.81200        -2.73600        -2.11000
H          -1.09000        -3.47700        -2.45800
H          -2.61800        -2.64500        -2.83600
N          -1.23000         0.35900        -0.04000
O          -1.36400        -2.43100         0.19300
O          -1.15500        -1.45000        -2.01900
P           0.21900         1.14900         0.60600
P          -0.58800        -1.15100        -0.49400

