%nprocshared=14
%mem=8GB
# nmr=giao b3lyp/def2TZVP pop=nbo scfcyc=200

Ligand 52 SPE NoRh 

0  1
C           2.84000         0.91000         1.18300
C           3.93000         1.78500         1.18400
H           4.22200         2.31300         0.29000
C           4.66400         1.99700         2.34800
H           5.50600         2.67800         2.32900
C           4.31900         1.34500         3.52500
H           4.89100         1.51500         4.42800
C           3.23900         0.46700         3.53500
H           2.96700        -0.05000         4.44700
C           2.51200         0.24600         2.37300
H           1.67900        -0.44800         2.38900
C           2.53300         1.17300        -1.89700
C           1.60200         0.68800        -3.02300
H           0.61300         1.14000        -2.95200
H           1.48800        -0.39800        -3.02000
H           2.03200         0.98000        -3.98400
C           3.91000         0.49500        -2.05200
H           3.84800        -0.59100        -1.97900
H           4.63900         0.84100        -1.32100
H           4.30000         0.73200        -3.04500
C           2.68100         2.69800        -2.00300
H           3.17600         2.92700        -2.95100
H           3.28600         3.13500        -1.21100
H           1.71800         3.19800        -2.00800
C          -0.35500         2.55000         0.43800
H          -1.39000         2.34000         0.71500
C           0.33700         3.07100         1.69600
H           0.31800         2.31400         2.47800
H          -0.18900         3.95200         2.06600
H           1.37700         3.34500         1.52000
C          -0.43400         3.55300        -0.71100
C          -1.16100         3.22800        -1.86100
H          -1.63100         2.25600        -1.93800
C          -1.29500         4.14000        -2.90100
H          -1.86500         3.87000        -3.78100
C          -0.71400         5.40200        -2.80700
H          -0.82300         6.11400        -3.61500
C          -0.00500         5.74200        -1.66300
H           0.44200         6.72400        -1.57200
C           0.13200         4.82600        -0.62200
H           0.68700         5.12200         0.25800
C          -3.13600        -0.68400        -0.96800
C          -3.32500        -1.39900        -2.14200
H          -2.59800        -1.30400        -2.93800
C          -4.45300        -2.19700        -2.28400
H          -4.60900        -2.75200        -3.20000
C          -4.05500        -0.72200         0.08600
C          -3.89300         0.09300         1.31100
C          -3.67500         1.57700         3.69800
H          -3.58800         2.13600         4.62100
C          -2.55500         0.96300         3.15400
H          -1.59300         1.01800         3.64500
C          -2.66700         0.24600         1.97000
N           0.16900         1.19500         0.03400
O          -2.02300         0.16300        -0.89500
O          -1.51500        -0.41700         1.52800
P           1.78000         0.50900        -0.27900
P          -0.74600        -0.23000         0.08200
C          -4.90300         1.46600         3.05300
H          -5.78000         1.95000         3.46200
C          -5.00300         0.73400         1.88000
H          -5.95900         0.66000         1.37700
C          -5.17700        -1.54600        -0.08200
H          -5.89600        -1.62000         0.72400
C          -5.37700        -2.27400        -1.24600
H          -6.25300        -2.90200        -1.34300

