%nprocshared=14
%mem=8GB
# nmr=giao b3lyp/def2TZVP pop=nbo scfcyc=200

Ligand 53 SPE NoRh 

0  1
C          -4.10500         1.44500        -0.08300
C          -5.16200         2.10000         0.55800
H          -5.39100         1.90600         1.59400
C          -5.94200         3.02500        -0.12600
H          -6.75600         3.52000         0.38800
C          -5.67800         3.31700        -1.46000
H          -6.28700         4.03900        -1.99000
C          -4.63000         2.67400        -2.10900
H          -4.41800         2.89200        -3.14800
C          -3.85700         1.74100        -1.42900
H          -3.05000         1.23600        -1.94500
C          -3.83200        -0.54600         2.25500
C          -2.96100        -1.73200         2.69700
H          -1.95400        -1.41700         2.97000
H          -2.88500        -2.49300         1.92000
H          -3.41400        -2.19300         3.57800
C          -5.21900        -1.07200         1.83100
H          -5.16300        -1.73200         0.96500
H          -5.92500        -0.27600         1.60200
H          -5.63300        -1.65600         2.65700
C          -3.96300         0.41300         3.44400
H          -4.51000        -0.09900         4.24100
H          -4.50600         1.32900         3.22100
H          -2.98700         0.67500         3.84200
C          -0.93000         2.14700         1.69200
H          -0.16500         2.52400         1.01200
C          -2.02400         3.20900         1.75300
H          -2.40500         3.44400         0.76300
H          -1.60400         4.11800         2.18500
H          -2.86400         2.90800         2.37800
C          -0.22800         1.94500         3.03700
C           1.15000         1.71100         3.06000
H           1.69400         1.62900         2.12900
C           1.84100         1.59200         4.25900
H           2.90900         1.41500         4.24700
C           1.16700         1.71600         5.47000
H           1.70400         1.62800         6.40600
C          -0.19700         1.98100         5.46600
H          -0.72800         2.11200         6.40000
C          -0.88300         2.10500         4.26100
H          -1.93000         2.36700         4.29200
C           1.88800        -1.27500         0.62700
C           2.16800        -2.55900         1.14000
C           3.30900        -3.18300         0.63600
H           3.54400        -4.17200         0.99300
C           2.78600        -0.60000        -0.20000
C           2.69300         0.84900        -0.53000
C           2.82000         3.46100        -1.44400
H           2.88400         4.46000        -1.84000
C           1.61900         2.76400        -1.62100
C           1.55800         1.47800        -1.05500
N          -1.41100         0.87800         1.00600
O           0.73700        -0.58500         1.04400
O           0.35600         0.75000        -1.14300
P          -3.01100         0.15900         0.68200
P          -0.45000        -0.11700         0.00100
C           3.93800         2.93500        -0.79900
C           3.85700         1.61000        -0.38400
H           4.71300         1.13100         0.06900
C           3.90600        -1.29700        -0.67700
H           4.56300        -0.77800        -1.35800
C           4.17500        -2.60200        -0.29600
C           1.32700        -3.25200         2.23700
C          -0.03300        -3.69300         1.66500
H          -0.64400        -4.14300         2.45200
H          -0.59400        -2.86400         1.23600
H           0.11200        -4.44400         0.88600
C           1.13400        -2.30900         3.44500
H           2.10000        -2.02700         3.86800
H           0.60600        -1.39600         3.18700
H           0.57000        -2.82500         4.22500
C           2.01700        -4.52000         2.77700
H           2.12400        -5.29700         2.01800
H           3.00200        -4.30500         3.19500
H           1.40500        -4.93800         3.57900
C           5.37900        -3.39700        -0.82700
C           6.30300        -3.78400         0.34900
H           5.79100        -4.40900         1.08300
H           7.16500        -4.34500        -0.01900
H           6.67300        -2.89600         0.86500
C           4.87600        -4.67900        -1.52600
H           4.31800        -5.32300        -0.84300
H           4.22500        -4.43600        -2.36800
H           5.72100        -5.25700        -1.90800
C           6.20600        -2.59200        -1.84200
H           5.61400        -2.30100        -2.71200
H           6.63300        -1.69000        -1.39800
H           7.03700        -3.20200        -2.20100
C           5.22900         3.73800        -0.57300
C           5.53200         3.79800         0.94000
H           4.72000         4.28500         1.48400
H           5.67200         2.80300         1.36500
H           6.44800         4.36600         1.11900
C           6.40200         3.04800        -1.30300
H           7.32500         3.61300        -1.15100
H           6.57200         2.03500        -0.93300
H           6.21600         2.98800        -2.37700
C           5.12100         5.18000        -1.09700
H           4.95200         5.21300        -2.17600
H           4.31800         5.73400        -0.60500
H           6.05300         5.71000        -0.89800
C           0.48800         3.38300        -2.47500
C           0.91400         4.71800        -3.11700
H           1.12500         5.48900        -2.37400
H           1.78900         4.60600        -3.75900
H           0.09600         5.08500        -3.73900
C           0.12700         2.42600        -3.63400
H           1.00000         2.23200        -4.26000
H          -0.25300         1.47300        -3.27300
H          -0.63900         2.88400        -4.26500
C          -0.75600         3.67400        -1.61900
H          -1.16900         2.76700        -1.18500
H          -0.51700         4.37000        -0.81200
H          -1.53500         4.13300        -2.23200

