%nprocshared=14
%mem=8GB
# nmr=giao b3lyp/def2TZVP pop=nbo scfcyc=200

Ligand 57a SPE NoRh 

0  1
C          -1.00100        -1.03500         2.04300
H          -0.12900        -1.63400         1.74900
C          -0.60100        -0.29300         3.32200
H           0.20000         0.40900         3.10300
H          -0.22900        -0.99100         4.07300
H          -1.42900         0.26600         3.75400
C          -2.15100        -2.03000         2.23100
C          -2.76800        -2.62800         1.12600
H          -2.49300        -2.31900         0.12600
C          -3.76300        -3.58500         1.28400
H          -4.22900        -4.02200         0.41000
C          -4.16500        -3.97200         2.55900
H          -4.94000        -4.71700         2.68500
C          -3.56800        -3.38500         3.66700
H          -3.87500        -3.67000         4.66500
C          -2.57400        -2.42200         3.50400
H          -2.13200        -1.98500         4.38800
C           1.01700         2.51600         0.73200
H          -0.04800         2.48600         0.97300
C           1.75200         2.71100         2.05900
H           1.64500         1.83300         2.69100
H           1.32600         3.55900         2.59600
H           2.81600         2.90100         1.92400
C           1.19500         3.68300        -0.24600
C           1.76200         4.89300         0.16700
H           2.13500         5.01200         1.17400
C           1.86500         5.97400        -0.70500
H           2.31200         6.89800        -0.35900
C           1.39900         5.87100        -2.00900
H           1.48000         6.71100        -2.68800
C           0.82200         4.67700        -2.43000
H           0.44600         4.58400        -3.44200
C           0.71800         3.60000        -1.55800
H           0.26000         2.68400        -1.90200
C           3.93200         1.02300        -1.35900
C           4.33800         2.47800        -1.07700
H           4.90800         2.59800        -0.15800
H           3.48300         3.14700        -1.04300
H           4.98400         2.81200        -1.89300
C           3.21900         0.97600        -2.72400
H           3.90400         1.34500        -3.49100
H           2.33500         1.61200        -2.73700
H           2.91600        -0.03500        -2.99600
C           5.19500         0.14000        -1.39800
H           5.83100         0.48200        -2.21900
H           4.97100        -0.91200        -1.57800
H           5.77600         0.20600        -0.48000
C           3.60100        -0.02900         1.51700
C           3.16400        -1.11100         2.29000
H           2.37100        -1.74600         1.91200
C           3.73800        -1.38800         3.52600
H           3.38400        -2.22900         4.10800
C           4.77400        -0.59400         4.00400
H           5.22900        -0.81000         4.96200
C           5.22700         0.47800         3.24100
H           6.03500         1.10000         3.60400
C           4.64500         0.76000         2.01000
H           5.01400         1.60500         1.45100
C          -2.55200         0.54000         0.71100
H          -3.20900        -0.08000         1.31700
C          -2.69000         1.96300         1.25700
C          -2.45700         3.09300         0.47100
H          -2.15800         2.98400        -0.56300
C          -2.61900         4.37100         0.99700
H          -2.43000         5.23400         0.37000
C          -3.03700         4.54100         2.31200
H          -3.17400         5.53600         2.71700
C          -3.30000         3.42300         3.09800
H          -3.65000         3.54400         4.11600
C          -3.13200         2.14800         2.57000
H          -3.36800         1.28700         3.18400
C          -2.10900         0.49700        -1.74400
C          -3.02400         0.41200        -0.72600
C          -4.40200         0.22700        -1.06100
C          -5.43400         0.16100        -0.09100
H          -5.19700         0.26300         0.95900
C          -6.74500        -0.01400        -0.46000
H          -7.51400        -0.05700         0.30100
C          -7.10200        -0.13400        -1.81800
H          -8.14000        -0.27200        -2.09200
C          -6.13200        -0.06900        -2.78500
H          -6.39600        -0.15300        -3.83200
C          -4.77100         0.11700        -2.44100
C          -3.76900         0.20400        -3.44000
H          -4.05900         0.12600        -4.48100
C          -2.45700         0.39200        -3.10400
H          -1.68000         0.47400        -3.85300
N          -1.21100        -0.11300         0.88900
N           1.26800         1.16000         0.14400
O          -0.77000         0.75900        -1.46400
P           0.04900        -0.00300        -0.23600
P           2.73900         0.20600        -0.11100

