%nprocshared=14
%mem=8GB
# nmr=giao b3lyp/def2TZVP pop=nbo scfcyc=200

Ligand 60 SPE NoRh 

0  1
C           3.62600         0.85000         1.37200
C           4.77800         1.63800         1.44200
H           5.21700         2.06400         0.55400
C           5.38400         1.89600         2.66800
H           6.27600         2.50900         2.70200
C           4.84900         1.37600         3.84000
H           5.32300         1.58100         4.79200
C           3.70500         0.58500         3.78200
H           3.28400         0.17100         4.69000
C           3.10500         0.31800         2.55900
H           2.22100        -0.30800         2.52500
C           3.69300         0.90200        -1.73400
C           2.86600         0.39400        -2.92900
H           1.90700         0.90500        -3.00400
H           2.68400        -0.68100        -2.87200
H           3.42000         0.59400        -3.85000
C           5.03200         0.13800        -1.68700
H           4.89200        -0.93600        -1.56100
H           5.69500         0.48600        -0.89700
H           5.54600         0.28800        -2.63900
C           3.95000         2.40500        -1.91400
H           4.56100         2.54100        -2.81100
H           4.49000         2.85900        -1.08500
H           3.02800         2.95800        -2.05900
C           0.65200         2.59700         0.12000
H          -0.41400         2.47000         0.31600
C           1.26000         3.20100         1.38400
H           1.12700         2.52500         2.22600
H           0.75500         4.13800         1.62200
H           2.32500         3.40600         1.28100
C           0.74000         3.48900        -1.11700
C           0.12700         3.08500        -2.30900
H          -0.37300         2.12700        -2.35100
C           0.14400         3.90100        -3.43300
H          -0.33800         3.56800        -4.34400
C           0.76500         5.14600        -3.38800
H           0.77400         5.78500        -4.26200
C           1.36100         5.56800        -2.20600
H           1.83800         6.53800        -2.15300
C           1.34500         4.74700        -1.08000
H           1.81600         5.10400        -0.17500
C          -2.13600        -0.63500        -1.28900
C          -2.21800        -1.51100        -2.36000
H          -1.45500        -1.49600        -3.12700
C          -3.28600        -2.39000        -2.41000
H          -3.37300        -3.07500        -3.24600
C          -4.23000        -2.44500        -1.38100
C          -4.14500        -1.54000        -0.31100
C          -3.11900        -0.56300        -0.30500
C          -3.02700         0.50700         0.73300
C          -4.03400         1.49000         0.89900
C          -3.94800         2.39700         1.96700
C          -2.85800         2.33100         2.83900
H          -2.81100         3.01300         3.68000
C          -1.81600         1.44700         2.62300
H          -0.94700         1.42600         3.26600
C          -1.89700         0.57800         1.54700
N           1.12700         1.18400        -0.10500
O          -1.01100         0.20400        -1.20100
O          -0.79500        -0.26300         1.30600
P           2.71900         0.39700        -0.17700
P           0.12800        -0.19000        -0.06300
C          -4.97700         3.49000         2.19100
H          -5.25200         3.50900         3.24900
H          -4.49500         4.45400         1.99100
C          -6.22300         3.36700         1.31600
H          -6.78300         4.30400         1.33600
H          -6.88900         2.59400         1.71500
C          -5.82100         2.99600        -0.10900
H          -5.13400         3.75100        -0.50600
H          -6.69000         2.98100        -0.77000
C          -5.15300         1.62000        -0.12000
H          -4.76200         1.39300        -1.11400
H          -5.92600         0.87100         0.07500
C          -5.09300        -1.66300         0.86900
H          -4.55000        -1.44000         1.79000
H          -5.87900        -0.90600         0.79700
C          -5.76800        -3.03300         0.95900
H          -6.52500        -3.01200         1.74600
H          -5.03600        -3.79600         1.24500
C          -6.38800        -3.39500        -0.38700
H          -7.09900        -2.61400        -0.67900
H          -6.95500        -4.32600        -0.32300
C          -5.29300        -3.52900        -1.44400
H          -5.72800        -3.54100        -2.44700
H          -4.79600        -4.49800        -1.32200

