%nprocshared=14
%mem=8GB
# nmr=giao b3lyp/def2TZVP pop=nbo scfcyc=200

Ligand 63 SPE NoRh 

0  1
P          -0.10000        -1.23200         0.30200
N          -0.93000         0.29900         0.61100
C          -0.01300        -2.10900         1.91100
C           0.15500        -3.49800         1.94600
C           0.35300        -4.14700         3.16000
C           0.38600        -3.42000         4.34600
C           0.23100        -2.03800         4.31500
C           0.04300        -1.38200         3.10400
C          -1.12700        -2.25500        -0.81600
C          -0.87300        -2.16900        -2.18900
C          -1.63900        -2.89900        -3.08900
C          -2.66100        -3.72100        -2.62500
C          -2.92100        -3.80700        -1.26100
C          -2.16000        -3.07800        -0.35600
C          -2.30100         0.45100         1.18200
C          -2.45500         1.76900         1.94900
C          -3.42100         0.27500         0.16400
C          -3.37100         0.82900        -1.11500
C          -4.45700         0.71000        -1.97600
C          -5.60900         0.04500        -1.57000
C          -5.66800        -0.50700        -0.29500
C          -4.57900        -0.39400         0.56300
H           0.12500        -4.08000         1.03400
H           0.47700        -5.22300         3.17800
H           0.53500        -3.92900         5.29000
H           0.26000        -1.46700         5.23500
H          -0.05700        -0.30400         3.09300
H          -0.08200        -1.52400        -2.55100
H          -1.43700        -2.82900        -4.15100
H          -3.25600        -4.29300        -3.32600
H          -3.72100        -4.44100        -0.90000
H          -2.37500        -3.15300         0.70100
H          -2.39100        -0.35900         1.90900
H          -2.48500         1.35500        -1.44600
H          -4.40400         1.14400        -2.96800
H          -6.45400        -0.04200        -2.24100
H          -6.56000        -1.02700         0.03300
H          -4.63500        -0.82900         1.55500
H          -3.43500         1.78200         2.42500
H          -2.41200         2.63000         1.28100
H          -1.69300         1.87700         2.72100
C          -0.41500         3.77200        -0.34100
C           0.13400         3.76900         0.93300
C          -0.91400         4.92100        -0.91400
C           0.20400         4.91500         1.69600
C          -0.84400         6.09200        -0.15400
H          -1.33900         4.90900        -1.90800
C          -0.29500         6.08900         1.12500
H           0.63200         4.89800         2.68900
H          -1.22300         7.01500        -0.57200
H          -0.25300         7.01000         1.69200
P           0.27800         1.38100         0.11100
O           0.57600         2.50700         1.31500
O          -0.39000         2.51100        -0.92900

