%nprocshared=14
%mem=8GB
# nmr=giao b3lyp/def2TZVP pop=nbo scfcyc=200

Ligand 65b SPE NoRh 

0  1
P          -1.31700        -0.21500         0.02800
P           1.30300        -0.20800         0.04500
O          -2.26200         0.01500        -1.29300
O          -2.26000         0.40000         1.23100
O           2.28600         0.00100         1.34000
O           2.20500         0.43500        -1.17500
N          -0.01000         0.88500         0.07000
C          -3.05900         1.16200        -1.45600
C          -2.71000         2.01400        -2.51800
H          -1.87600         1.74400        -3.15300
C          -3.43900         3.15200        -2.72900
H          -3.19200         3.81200        -3.55100
C          -4.50500         3.49800        -1.86400
C          -5.21500         4.71400        -2.02800
H          -4.94800         5.36200        -2.85400
C          -6.20700         5.07300        -1.15500
H          -6.73900         6.00700        -1.28600
C          -6.52500         4.23100        -0.07000
H          -7.29200         4.53000         0.63300
C          -5.87100         3.03700         0.10700
H          -6.12700         2.41000         0.94900
C          -4.85500         2.61900        -0.78900
C          -4.14300         1.38000        -0.63200
C          -4.51900         0.37300         0.39700
C          -5.83200        -0.20700         0.46500
C          -6.82200         0.02100        -0.52400
H          -6.59100         0.65400        -1.36900
C          -8.06300        -0.55600        -0.43100
H          -8.79900        -0.37200        -1.20300
C          -8.39000        -1.39200         0.65700
H          -9.37700        -1.83200         0.72200
C          -7.45100        -1.65400         1.62000
H          -7.68500        -2.30900         2.45100
C          -6.15300        -1.09100         1.54500
C          -5.16200        -1.40600         2.50700
H          -5.42100        -2.05600         3.33400
C          -3.89100        -0.91700         2.38500
H          -3.11400        -1.15900         3.10000
C          -3.58600        -0.05600         1.31700
C           3.10500         1.13400         1.49900
C           2.80400         1.96400         2.59300
H           1.99100         1.68900         3.25100
C           3.55200         3.09000         2.80200
H           3.34300         3.73300         3.64800
C           4.59100         3.44400         1.90600
C           5.31900         4.64900         2.07200
H           5.08900         5.28100         2.92100
C           6.28400         5.01800         1.17200
H           6.83000         5.94300         1.30400
C           6.55300         4.19600         0.05800
H           7.29700         4.50400        -0.66600
C           5.88000         3.01400        -0.12200
H           6.09800         2.40400        -0.98600
C           4.89200         2.58700         0.80100
C           4.16100         1.35900         0.64200
C           4.49100         0.37100        -0.42100
C           5.79600        -0.21900        -0.54800
C           6.82100        -0.02200         0.41200
H           6.62400         0.59200         1.27900
C           8.05200        -0.60800         0.26300
H           8.81600        -0.44800         1.01400
C           8.33400        -1.42000        -0.85400
H           9.31500        -1.86700        -0.96300
C           7.36100        -1.65200        -1.79100
H           7.56100        -2.28900        -2.64400
C           6.07200        -1.07900        -1.65800
C           5.04700        -1.36300        -2.59300
H           5.27000        -1.99600        -3.44400
C           3.78400        -0.86700        -2.41600
H           2.98100        -1.08700        -3.10800
C           3.52400        -0.02900        -1.31800
C          -0.01600         2.35800         0.04700
H          -0.98300         2.71200         0.39600
H           0.16800         2.72900        -0.96100
H           0.75300         2.74000         0.71700

