%nprocshared=14
%mem=8GB
# nmr=giao b3lyp/def2TZVP pop=nbo scfcyc=200

Ligand 6 SPE NoRh 

0  1
P          -1.48600         1.64100        -0.53100
P           0.69600         0.54500         0.86500
C           0.11600         2.22000         0.25100
H           0.78800         2.67300        -0.47700
H          -0.02700         2.92900         1.06600
C           0.74900         0.73500         2.70500
H          -0.25300         0.97900         3.05700
H           1.43800         1.52300         3.00700
H           1.05000        -0.20300         3.16900
C           2.48700         0.31600         0.30300
C           3.05300        -0.98400         0.92400
C           3.38000         1.50300         0.73200
C           2.51900         0.19100        -1.23900
H           3.04700        -0.92000         2.01600
H           2.43400        -1.84200         0.64700
C           4.49900        -1.21100         0.43600
H           3.38100         1.61100         1.81900
H           3.00200         2.44100         0.31400
C           4.82600         1.27100         0.24300
C           3.96600        -0.03800        -1.71900
H           2.12600         1.10100        -1.70300
H           1.87900        -0.63600        -1.56200
C           5.37500        -0.02200         0.86800
H           4.87800        -2.13200         0.88600
C           4.51100        -1.33400        -1.09600
H           5.43900         2.12100         0.55400
C           4.84000         1.15200        -1.29000
H           3.96400        -0.12300        -2.80900
H           6.40800        -0.18400         0.54700
H           5.39200         0.06000         1.95900
H           5.53000        -1.51900        -1.44800
H           3.90800        -2.19100        -1.41300
H           5.86500         1.01200        -1.64500
H           4.47200         2.07700        -1.74600
C          -1.28000         2.03600        -2.32700
H          -2.15800         1.71200        -2.88500
H          -1.12400         3.10300        -2.48900
H          -0.41900         1.48600        -2.70500
C          -2.87600         2.77300         0.10000
C          -3.05000         2.51800         1.60600
H          -3.26500         1.47000         1.81900
H          -2.16700         2.80900         2.17700
H          -3.88500         3.11600         1.98000
C          -2.53500         4.25000        -0.14700
H          -2.45200         4.48500        -1.20900
H          -3.33600         4.87500         0.25800
H          -1.61000         4.55300         0.34600
C          -4.17200         2.40700        -0.64300
H          -4.99300         3.01500        -0.25400
H          -4.10400         2.60600        -1.71400
H          -4.44800         1.36100        -0.50400

