%nprocshared=14
%mem=8GB
# nmr=giao b3lyp/def2TZVP pop=nbo scfcyc=200

Ligand 73 SPE NoRh 

0  1
P          -1.12400         0.91500         0.12500
P           1.14400        -0.55000         0.21100
N           0.61200         1.12300         0.26000
C          -1.97700         1.45400         1.67300
C          -2.57600         2.71000         1.81700
H          -2.55200         3.42400         1.00600
C          -3.21000         3.05100         3.00600
H          -3.67100         4.02600         3.10600
C          -3.25100         2.14700         4.06300
H          -3.74500         2.41700         4.98800
C          -2.66200         0.89400         3.92700
H          -2.70000         0.18400         4.74300
C          -2.03600         0.54700         2.73600
H          -1.59700        -0.43700         2.62500
C          -1.79800         1.99700        -1.19800
C          -0.98200         2.65100        -2.12200
H           0.09500         2.62500        -2.02300
C          -1.55400         3.37000        -3.16800
H          -0.91200         3.88500        -3.87100
C          -2.93500         3.43100        -3.31000
H          -3.37400         3.99100        -4.12700
C          -3.75400         2.77200        -2.39700
H          -4.83100         2.81700        -2.49800
C          -3.19200         2.05700        -1.34700
H          -3.84400         1.56100        -0.63800
C           2.00300        -0.89200         1.80200
C           3.28100        -0.39400         2.08600
H           3.82400         0.18200         1.34900
C           3.86800        -0.64100         3.32200
H           4.85500        -0.24900         3.53400
C           3.19400        -1.39200         4.28100
H           3.65800        -1.58600         5.24000
C           1.92800        -1.89500         4.00500
H           1.40400        -2.48500         4.74600
C           1.33400        -1.64400         2.77300
H           0.34800        -2.03700         2.56000
C           2.42300        -0.74800        -1.09600
C           2.25600        -0.11200        -2.33100
H           1.45500         0.59900        -2.47400
C           3.13100        -0.37600        -3.37700
H           3.00200         0.13500        -4.32400
C           4.16600        -1.29200        -3.21200
H           4.84400        -1.50000        -4.03100
C           4.32400        -1.94500        -1.99400
H           5.12400        -2.66300        -1.86100
C           3.45800        -1.67700        -0.94000
H           3.59600        -2.19300         0.00100
C           1.46500         2.23700         0.72800
H           2.03800         1.87800         1.58400
C           2.47400         2.66700        -0.34700
C           0.70100         3.48800         1.16900
H           1.41900         4.25500         1.46000
H           0.08800         3.88900         0.36200
H           0.07300         3.27400         2.03100
C           4.74500         3.23900        -0.71400
H           5.65200         3.24500        -0.11700
H           4.85300         2.58500        -1.57700
H           4.49600         4.24500        -1.04800
O           2.19700         2.96100        -1.48300
O           3.71000         2.73600         0.16600

