%nprocshared=14
%mem=8GB
# nmr=giao b3lyp/def2TZVP pop=nbo scfcyc=200

Ligand 84 SPE NoRh 

0  1
P          -2.79200        -1.62800         0.47800
P          -0.31700        -0.52500        -0.02000
C           4.12800        -1.56900        -0.16800
O           0.73500        -0.57300        -1.28500
C           2.94200        -0.77300        -0.32800
O           0.68600        -0.32000         1.28400
C          -0.99200        -2.19500         0.35400
H          -0.57400        -2.66300         1.24500
H          -0.85700        -2.86200        -0.49800
C           4.29000        -2.75400        -0.95500
C           1.95500        -1.26400        -1.15600
C           6.42900        -3.18600         0.10200
H           7.32000        -3.79200         0.21200
C           5.58800         2.68600        -0.76900
H           6.39500         2.66300        -1.49100
C           4.73700         1.61400        -0.66800
H           4.87900         0.75700        -1.31000
C           2.10500        -2.42100        -1.93900
H           1.30600        -2.71000        -2.60900
C           1.65100         0.69500         1.20600
C           5.46400        -3.53300        -0.80600
H           5.57900        -4.42000        -1.41900
C           3.66500         1.61700         0.26100
C           5.13800        -1.25600         0.77800
H           5.02100        -0.38800         1.41100
C           2.75000         0.51800         0.39100
C           6.25400        -2.04300         0.90900
H           7.00700        -1.78700         1.64300
C           3.47500         2.78600         1.06500
C           4.38500         3.86600         0.94700
H           4.23800         4.73900         1.57200
C           3.26500        -3.14000        -1.85300
H           3.40400        -4.02600        -2.46000
C           1.45800         1.83500         2.00600
H           0.59800         1.87600         2.66100
C           5.42200         3.81900         0.05300
H           6.10800         4.65200        -0.03300
C           2.37100         2.85300         1.95000
H           2.24800         3.73100         2.57200
C          -3.69000        -2.89500        -0.59700
H          -3.07600        -2.87900        -1.50400
C          -5.11000        -2.48400        -0.99900
H          -5.12500        -1.52000        -1.50600
H          -5.51600        -3.22400        -1.69200
H          -5.78700        -2.43300        -0.14600
C          -3.64400        -4.30900        -0.00700
H          -4.01300        -5.02400        -0.74600
H          -2.63400        -4.61800         0.26800
H          -4.27900        -4.40000         0.87600
C          -3.24600        -1.93500         2.27900
H          -3.00300        -2.98600         2.45800
C          -4.73900        -1.72000         2.55200
H          -5.37300        -2.40700         1.99500
H          -4.93700        -1.88200         3.61400
H          -5.05100        -0.70000         2.31800
C          -2.38600        -1.06600         3.20600
H          -1.31700        -1.23100         3.07500
H          -2.58400        -0.00400         3.04700
H          -2.62900        -1.30000         4.24500

