%nprocshared=14
%mem=8GB
# nmr=giao b3lyp/def2TZVP pop=nbo scfcyc=200

Ligand 86 SPE NoRh 

0  1
P          -2.74000        -1.38800         0.46300
P          -0.20500        -0.38700         0.00100
C           4.18100        -1.65800        -0.20600
O           0.83800        -0.46100        -1.27300
C           3.03700        -0.79900        -0.33800
C          -2.11800        -0.85400         3.12100
H          -2.40200        -0.86800         4.17700
H          -2.04000         0.19000         2.81100
H          -1.13000        -1.30600         3.04600
O           0.81800        -0.27200         1.30000
C          -3.29700        -2.11500        -2.15800
H          -2.23900        -2.31400        -2.33500
H          -3.47900        -1.06300        -2.37200
H          -3.86200        -2.71200        -2.88000
C          -3.74400        -2.50700        -0.73600
C          -3.19200        -1.61100         2.31700
C          -0.96400        -2.03100         0.32100
H          -0.57000        -2.55300         1.19100
H          -0.85100        -2.67000        -0.55400
C           4.27700        -2.82900        -1.02300
C           2.02000        -1.21700        -1.17000
C           6.39900        -3.39600         0.00600
H           7.25800        -4.04900         0.09400
C           5.85400         2.53200        -0.71500
H           6.65500         2.48500        -1.44200
C           4.95100         1.50200        -0.63200
H           5.04600         0.65400        -1.29500
C          -3.21900        -3.08000         2.76000
H          -3.30300        -3.11700         3.85000
H          -2.31000        -3.62100         2.48900
H          -4.07400        -3.61800         2.35400
C          -3.47600        -4.00600        -0.53100
H          -3.99800        -4.56300        -1.31400
H          -3.84200        -4.37300         0.42500
H          -2.41800        -4.26000        -0.61200
C           2.10600        -2.36100        -1.98200
H           1.29000        -2.59200        -2.65300
C           1.83100         0.69500         1.23900
C          -4.55400        -0.95600         2.60600
H          -5.37600        -1.42400         2.06700
H          -4.54800         0.10900         2.37300
H          -4.76800        -1.05200         3.67300
C           5.41100        -3.67100        -0.90300
H           5.47700        -4.54700        -1.53800
C           3.88500         1.53700         0.30300
C           5.21200        -1.42000         0.73800
H           5.14400        -0.56300         1.39300
C           2.91600         0.48300         0.41300
C           6.28800        -2.26600         0.84100
H           7.05800        -2.06600         1.57600
C           3.75700         2.69600         1.13400
C           4.71900         3.73200         1.03500
H           4.61900         4.59600         1.68000
C           3.22900        -3.14100        -1.92200
H           3.31800        -4.01700        -2.55200
C           1.70000         1.82500         2.06500
H           0.84600         1.89400         2.72600
C           5.74800         3.65300         0.13400
H           6.47500         4.45300         0.06300
C           2.66200         2.79700         2.02600
H           2.58600         3.66600         2.66900
C          -5.24700        -2.22400        -0.58700
H          -5.78300        -2.71500        -1.40300
H          -5.48000        -1.15900        -0.63900
H          -5.64900        -2.61800         0.34500

