%nprocshared=14
%mem=8GB
# nmr=giao b3lyp/def2TZVP pop=nbo scfcyc=200

Ligand 87 SPE NoRh 

0  1
P           2.69700         0.88000         1.11300
P           0.16900         0.20600         0.19200
C          -4.21000         1.14600         0.89300
O          -0.90200         1.03400        -0.75400
C          -3.05700         0.64600         0.20300
C           2.31200        -1.14400         2.97400
H           2.68500        -1.73900         3.81100
H           2.21900        -1.80900         2.11500
H           1.31500        -0.79800         3.24400
O          -0.82300        -0.74500         1.13100
C           3.06000         3.03900        -0.59600
H           1.98300         3.21000        -0.61800
H           3.30300         2.33000        -1.38700
H           3.53900         3.99200        -0.83500
C           3.56100         2.56500         0.78000
C           3.29700         0.00900         2.71400
C           0.88800         1.33300         1.45500
H           0.54000         1.16100         2.47100
H           0.68400         2.36800         1.18100
C          -4.35500         2.55800         1.05100
C          -2.08600         1.54100        -0.19100
C          -6.43600         2.22500         2.25000
H          -7.29900         2.62400         2.76800
C          -5.73400        -1.63500        -2.36500
H          -6.52400        -1.13300        -2.90900
C          -4.87300        -0.90300        -1.58600
H          -4.99000         0.16900        -1.52200
C           3.32500         0.94200         3.93300
H           3.49800         0.34100         4.83000
H           2.38300         1.47400         4.07900
H           4.12900         1.67300         3.87600
C           3.21800         3.63900         1.82500
H           3.68200         4.58000         1.51800
H           3.59300         3.40100         2.81700
H           2.14600         3.82600         1.89800
C          -2.22300         2.95000        -0.07900
C          -1.81400        -1.49300         0.47600
C           4.69300        -0.59800         2.49300
H           5.45600         0.14600         2.27600
H           4.68900        -1.33600         1.69100
H           4.99500        -1.11700         3.40600
C          -5.49300         3.06900         1.72500
H          -5.59900         4.14300         1.82500
C          -3.82400        -1.53400        -0.87100
C          -5.19600         0.30200         1.46300
H          -5.09100        -0.77000         1.38100
C          -2.88900        -0.81300        -0.06100
C          -6.27700         0.82900         2.12500
H          -7.01500         0.16600         2.55900
C          -3.67000        -2.94800        -1.00200
C          -4.58800        -3.67600        -1.80000
H          -4.47100        -4.75000        -1.87900
C          -3.36500         3.42000         0.53200
H          -3.51900         4.48900         0.60900
C          -1.67700        -2.90700         0.41500
C          -5.59900        -3.03600        -2.46800
H          -6.29200        -3.60000        -3.07900
C          -2.61600        -3.59500        -0.32100
H          -2.55900        -4.67600        -0.36500
C           5.08500         2.37300         0.72100
H           5.54100         3.29000         0.33800
H           5.38100         1.56000         0.05600
H           5.51600         2.18600         1.70400
C          -1.22800         3.90900        -0.62900
C          -0.79600         4.99500         0.14200
C          -0.77800         3.80900        -1.95100
C           0.05100         5.96000        -0.39500
H          -1.13200         5.08800         1.16800
C           0.06200         4.77700        -2.48900
H          -1.11300         2.98700        -2.56900
C           0.47800         5.85700        -1.71400
H           0.36600         6.79700         0.21500
H           0.38000         4.69800        -3.52100
H           1.12500         6.61500        -2.13900
C          -0.63100        -3.65600         1.16000
C           0.11400        -4.65700         0.52600
C          -0.45000        -3.45900         2.53300
C           1.01400        -5.43900         1.24200
H          -0.02200        -4.83100        -0.53500
C           0.44100        -4.24800         3.25100
H          -1.03200        -2.70500         3.04600
C           1.17900        -5.23900         2.60900
H           1.57500        -6.21400         0.73500
H           0.54900        -4.09900         4.31800
H           1.86700        -5.85700         3.17100

