%nprocshared=14
%mem=8GB
# nmr=giao b3lyp/def2TZVP pop=nbo scfcyc=200

Ligand 8 SPE NoRh 

0  1
P           1.64800        -0.11400        -0.00600
C           1.43500         1.73800        -0.29100
H           1.66800         2.28100         0.62400
H           2.04100         2.16100        -1.09100
P          -0.40900         1.77000        -0.59800
C           2.57600        -0.23700         1.68400
C           3.09800        -1.66600         1.90700
H           3.44300        -1.75600         2.94100
H           3.94500        -1.90200         1.26500
H           2.32900        -2.42500         1.75600
C           1.53800         0.08800         2.77300
H           2.01700         0.00900         3.75300
H           0.69200        -0.59900         2.75400
H           1.14800         1.10200         2.68600
C           3.74400         0.75500         1.81200
H           4.17200         0.65800         2.81300
H           3.42900         1.79300         1.70300
H           4.54300         0.56600         1.09900
C           2.72500        -0.74300        -1.47400
C           2.02900        -0.29900        -2.77200
H           2.55000        -0.75200        -3.62000
H           2.06400         0.78100        -2.91700
H           0.98900        -0.62900        -2.80800
C           4.15300        -0.17800        -1.45500
H           4.64800        -0.44400        -2.39300
H           4.75200        -0.59600        -0.64800
H           4.17600         0.91000        -1.37500
C           2.77400        -2.28000        -1.47000
H           3.37300        -2.61200        -2.32200
H           1.78200        -2.71500        -1.58500
H           3.23000        -2.69300        -0.57300
C          -1.12500         3.27300         0.33300
C          -2.60700         3.42200        -0.05300
H          -3.04400         4.24200         0.52200
H          -3.18700         2.52500         0.17000
H          -2.73900         3.66400        -1.10800
C          -0.36200         4.55300        -0.04100
H          -0.77000         5.39200         0.53000
H          -0.46300         4.80500        -1.09700
H           0.70100         4.48900         0.19800
C          -1.01100         3.02400         1.84400
H          -1.49600         3.84200         2.38200
H           0.02800         2.99600         2.17900
H          -1.49100         2.09200         2.14500
C          -0.61300         2.20100        -2.38600
H          -0.12900         3.14800        -2.62600
H          -1.67300         2.27200        -2.62600
H          -0.18200         1.41400        -2.99900

